NAME: random-73-22367
TYPE: TSP
COMMENT: size=73 seed=22367
DIMENSION: 148
EDGE_WEIGHT_TYPE: EUC_2D
NODE_COORD_SECTION
+0 169 909
-0 169 909
+1 658 465
-1 4 178
+2 870 21
-2 161 356
+3 422 283
-3 64 592
+4 892 259
-4 255 339
+5 162 456
-5 272 902
+6 398 516
-6 101 4
+7 784 44
-7 32 86
+8 14 522
-8 709 684
+9 243 737
-9 91 670
+10 214 152
-10 770 362
+11 911 40
-11 507 561
+12 145 652
-12 199 956
+13 90 692
-13 511 402
+14 501 113
-14 118 363
+15 576 674
-15 574 463
+16 971 995
-16 615 973
+17 570 508
-17 613 3
+18 586 738
-18 799 702
+19 359 72
-19 271 654
+20 0 310
-20 805 361
+21 999 805
-21 386 693
+22 479 888
-22 891 544
+23 738 134
-23 997 188
+24 373 845
-24 865 571
+25 868 344
-25 329 640
+26 893 844
-26 250 566
+27 660 365
-27 407 938
+28 27 44
-28 573 415
+29 383 7
-29 961 905
+30 775 192
-30 649 834
+31 118 484
-31 352 708
+32 440 60
-32 881 107
+33 880 51
-33 526 523
+34 546 851
-34 206 603
+35 424 234
-35 813 408
+36 601 56
-36 596 348
+37 512 80
-37 158 54
+38 619 924
-38 38 963
+39 465 718
-39 247 828
+40 820 270
-40 942 328
+41 148 449
-41 7 876
+42 98 459
-42 644 175
+43 754 177
-43 665 893
+44 830 766
-44 789 148
+45 696 587
-45 653 627
+46 624 637
-46 632 932
+47 323 802
-47 468 804
+48 182 763
-48 840 645
+49 901 693
-49 771 222
+50 278 483
-50 93 823
+51 84 368
-51 757 729
+52 12 479
-52 298 667
+53 1 736
-53 980 555
+54 413 818
-54 204 106
+55 346 482
-55 304 466
+56 310 521
-56 107 492
+57 491 673
-57 575 691
+58 96 17
-58 501 100
+59 829 33
-59 364 606
+60 308 740
-60 106 528
+61 372 277
-61 583 191
+62 389 582
-62 337 853
+63 377 503
-63 984 662
+64 46 643
-64 500 62
+65 941 280
-65 545 344
+66 7 434
-66 217 348
+67 468 703
-67 827 804
+68 207 365
-68 781 708
+69 544 164
-69 347 480
+70 506 513
-70 688 675
+71 642 729
-71 872 320
+72 752 1
-72 734 374
+73 192 717
-73 121 138
PRECEDENCE_SECTION
+0 -0
+1 -1
+2 -2
+3 -3
+4 -4
+5 -5
+6 -6
+7 -7
+8 -8
+9 -9
+10 -10
+11 -11
+12 -12
+13 -13
+14 -14
+15 -15
+16 -16
+17 -17
+18 -18
+19 -19
+20 -20
+21 -21
+22 -22
+23 -23
+24 -24
+25 -25
+26 -26
+27 -27
+28 -28
+29 -29
+30 -30
+31 -31
+32 -32
+33 -33
+34 -34
+35 -35
+36 -36
+37 -37
+38 -38
+39 -39
+40 -40
+41 -41
+42 -42
+43 -43
+44 -44
+45 -45
+46 -46
+47 -47
+48 -48
+49 -49
+50 -50
+51 -51
+52 -52
+53 -53
+54 -54
+55 -55
+56 -56
+57 -57
+58 -58
+59 -59
+60 -60
+61 -61
+62 -62
+63 -63
+64 -64
+65 -65
+66 -66
+67 -67
+68 -68
+69 -69
+70 -70
+71 -71
+72 -72
+73 -73
EOF
